c This file is generated by v2cnfMtr
c Generated on Mon Nov  9 15:39:16 2015
p cnf 472 1283
1 58 0
-1 -58 0
2 59 0
-2 -59 0
4 60 0
-4 -60 0
231 61 0
-231 -61 0
8 62 0
-8 -62 0
10 63 0
-10 -63 0
12 64 0
-12 -64 0
14 65 0
-14 -65 0
16 66 0
-16 -66 0
18 67 0
-18 -67 0
20 68 0
-20 -68 0
223 69 0
-223 -69 0
24 70 0
-24 -70 0
26 71 0
-26 -71 0
28 72 0
-28 -72 0
30 73 0
-30 -73 0
32 74 0
-32 -74 0
34 75 0
-34 -75 0
-58 -2 -76 0
58 76 0
2 76 0
224 59 77 0
-224 -77 0
-59 -77 0
228 59 78 0
-228 -78 0
-59 -78 0
-60 -231 -79 0
60 79 0
231 79 0
-62 -10 -80 0
62 80 0
10 80 0
-64 -14 -81 0
64 81 0
14 81 0
-66 -18 -82 0
66 82 0
18 82 0
-68 -223 -83 0
68 83 0
223 83 0
-70 -26 -84 0
70 84 0
26 84 0
-72 -30 -85 0
72 85 0
30 85 0
-74 -34 -86 0
74 86 0
34 86 0
7 61 87 0
-7 -87 0
-61 -87 0
9 61 88 0
-9 -88 0
-61 -88 0
11 63 89 0
-11 -89 0
-63 -89 0
225 63 90 0
-225 -90 0
-63 -90 0
15 65 91 0
-15 -91 0
-65 -91 0
232 65 92 0
-232 -92 0
-65 -92 0
19 67 93 0
-19 -93 0
-67 -93 0
21 67 94 0
-21 -94 0
-67 -94 0
23 69 95 0
-23 -95 0
-69 -95 0
25 69 96 0
-25 -96 0
-69 -96 0
27 71 97 0
-27 -97 0
-71 -97 0
29 71 98 0
-29 -98 0
-71 -98 0
229 73 99 0
-229 -99 0
-73 -99 0
230 73 100 0
-230 -100 0
-73 -100 0
226 75 101 0
-226 -101 0
-75 -101 0
36 75 102 0
-36 -102 0
-75 -102 0
-76 -79 -80 -81 -82 -83 -84 -85 -86 103 0
76 -103 0
79 -103 0
80 -103 0
81 -103 0
82 -103 0
83 -103 0
84 -103 0
85 -103 0
86 -103 0
103 104 0
-103 -104 0
103 105 0
-103 -105 0
103 51 0
-103 -51 0
-104 -76 -106 0
104 76 -106 0
104 -76 106 0
-104 76 106 0
-104 -79 -107 0
104 79 -107 0
104 -79 107 0
-104 79 107 0
-104 -80 -108 0
104 80 -108 0
104 -80 108 0
-104 80 108 0
-104 -81 -109 0
104 81 -109 0
104 -81 109 0
-104 81 109 0
-104 -82 -110 0
104 82 -110 0
104 -82 110 0
-104 82 110 0
104 211 0
-104 -211 0
83 212 0
-83 -212 0
-211 -47 213 0
211 -213 0
47 -213 0
-212 -213 214 0
212 -214 0
213 -214 0
-104 -48 215 0
104 -215 0
48 -215 0
-212 -215 216 0
212 -216 0
215 -216 0
-211 -49 217 0
211 -217 0
49 -217 0
-83 -217 218 0
83 -218 0
217 -218 0
-104 -50 219 0
104 -219 0
50 -219 0
-83 -219 220 0
83 -220 0
219 -220 0
214 216 -221 0
-214 221 0
-216 221 0
218 221 -222 0
-218 222 0
-221 222 0
220 222 -111 0
-220 111 0
-222 111 0
-1 -105 -112 0
1 112 0
105 112 0
-104 -84 -113 0
104 84 -113 0
104 -84 113 0
-104 84 113 0
-105 -4 -114 0
105 114 0
4 114 0
-104 -85 -115 0
104 85 -115 0
104 -85 115 0
-104 85 115 0
-105 -8 -116 0
105 116 0
8 116 0
-104 -86 -117 0
104 86 -117 0
104 -86 117 0
-104 86 117 0
-105 -12 -118 0
105 118 0
12 118 0
-105 -16 -119 0
105 119 0
16 119 0
-105 -20 -120 0
105 120 0
20 120 0
-105 -24 -121 0
105 121 0
24 121 0
-105 -28 -122 0
105 122 0
28 122 0
-105 -32 -123 0
105 123 0
32 123 0
-106 -77 -124 0
106 124 0
77 124 0
-106 -78 -125 0
106 125 0
78 125 0
-107 -87 -126 0
107 126 0
87 126 0
-108 -89 -127 0
108 127 0
89 127 0
-109 -91 -128 0
109 128 0
91 128 0
-110 -93 -129 0
110 129 0
93 129 0
-111 -95 -130 0
111 130 0
95 130 0
-113 -97 -131 0
113 131 0
97 131 0
-115 -99 -132 0
115 132 0
99 132 0
-117 -101 -133 0
117 133 0
101 133 0
-107 -88 -134 0
107 134 0
88 134 0
-108 -90 -135 0
108 135 0
90 135 0
-109 -92 -136 0
109 136 0
92 136 0
-110 -94 -137 0
110 137 0
94 137 0
-111 -96 -138 0
111 138 0
96 138 0
-113 -98 -139 0
113 139 0
98 139 0
-115 -100 -140 0
115 140 0
100 140 0
-117 -102 -141 0
117 141 0
102 141 0
-124 -126 -127 -128 -129 -130 -131 -132 -133 142 0
124 -142 0
126 -142 0
127 -142 0
128 -142 0
129 -142 0
130 -142 0
131 -142 0
132 -142 0
133 -142 0
125 143 0
-125 -143 0
134 144 0
-134 -144 0
135 145 0
-135 -145 0
136 146 0
-136 -146 0
137 147 0
-137 -147 0
138 148 0
-138 -148 0
139 149 0
-139 -149 0
140 150 0
-140 -150 0
141 151 0
-141 -151 0
142 152 0
-142 -152 0
142 153 0
-142 -153 0
142 52 0
-142 -52 0
-152 -124 -154 0
152 124 -154 0
152 -124 154 0
-152 124 154 0
-152 -126 -155 0
152 126 -155 0
152 -126 155 0
-152 126 155 0
-152 -127 -156 0
152 127 -156 0
152 -127 156 0
-152 127 156 0
-152 -128 -157 0
152 128 -157 0
152 -128 157 0
-152 128 157 0
-224 -153 -158 0
224 158 0
153 158 0
-152 -129 -159 0
152 129 -159 0
152 -129 159 0
-152 129 159 0
-153 -7 -160 0
153 160 0
7 160 0
-152 -130 -161 0
152 130 -161 0
152 -130 161 0
-152 130 161 0
-153 -11 -162 0
153 162 0
11 162 0
-152 -131 -163 0
152 131 -163 0
152 -131 163 0
-152 131 163 0
-153 -15 -164 0
153 164 0
15 164 0
-152 -132 -165 0
152 132 -165 0
152 -132 165 0
-152 132 165 0
-153 -19 -166 0
153 166 0
19 166 0
-152 -133 -167 0
152 133 -167 0
152 -133 167 0
-152 133 167 0
-153 -23 -168 0
153 168 0
23 168 0
-153 -27 -169 0
153 169 0
27 169 0
-153 -229 -170 0
153 170 0
229 170 0
-153 -226 -171 0
153 171 0
226 171 0
-154 -143 -172 0
154 172 0
143 172 0
-155 -144 -173 0
155 173 0
144 173 0
-156 -145 -174 0
156 174 0
145 174 0
-157 -146 -175 0
157 175 0
146 175 0
-159 -147 -176 0
159 176 0
147 176 0
-161 -148 -177 0
161 177 0
148 177 0
-163 -149 -178 0
163 178 0
149 178 0
-165 -150 -179 0
165 179 0
150 179 0
-167 -151 -180 0
167 180 0
151 180 0
-172 -173 -174 -175 -176 -177 -178 -179 -180 181 0
172 -181 0
173 -181 0
174 -181 0
175 -181 0
176 -181 0
177 -181 0
178 -181 0
179 -181 0
180 -181 0
181 182 0
-181 -182 0
181 53 0
-181 -53 0
-228 -182 -183 0
228 183 0
182 183 0
-182 -9 -184 0
182 184 0
9 184 0
-182 -225 -185 0
182 185 0
225 185 0
-182 -232 -186 0
182 186 0
232 186 0
-182 -21 -187 0
182 187 0
21 187 0
-182 -25 -188 0
182 188 0
25 188 0
-182 -29 -189 0
182 189 0
29 189 0
-182 -230 -190 0
182 190 0
230 190 0
-182 -36 -191 0
182 191 0
36 191 0
-2 -112 -158 -183 -192 0
2 192 0
112 192 0
158 192 0
183 192 0
-114 -160 -184 -231 -193 0
114 193 0
160 193 0
184 193 0
231 193 0
-116 -162 -185 -10 -194 0
116 194 0
162 194 0
185 194 0
10 194 0
-118 -164 -186 -14 -195 0
118 195 0
164 195 0
186 195 0
14 195 0
-119 -166 -187 -18 -196 0
119 196 0
166 196 0
187 196 0
18 196 0
-120 -168 -188 -223 -197 0
120 197 0
168 197 0
188 197 0
223 197 0
-121 -169 -189 -26 -198 0
121 198 0
169 198 0
189 198 0
26 198 0
-122 -170 -190 -30 -199 0
122 199 0
170 199 0
190 199 0
30 199 0
-123 -171 -191 -34 -200 0
123 200 0
171 200 0
191 200 0
34 200 0
192 201 0
-192 -201 0
-193 -194 -195 -196 -197 -198 -199 -200 202 0
193 -202 0
194 -202 0
195 -202 0
196 -202 0
197 -202 0
198 -202 0
199 -202 0
200 -202 0
195 203 0
-195 -203 0
197 204 0
-197 -204 0
198 205 0
-198 -205 0
199 206 0
-199 -206 0
201 202 54 0
-201 -54 0
-202 -54 0
-194 -203 -207 0
194 207 0
203 207 0
-194 -195 -204 -196 -208 0
194 208 0
195 208 0
204 208 0
196 208 0
-196 -195 -205 -209 0
196 209 0
195 209 0
205 209 0
-194 -195 -198 -206 -210 0
194 210 0
195 210 0
198 210 0
206 210 0
-193 -194 -207 -196 -55 0
193 55 0
194 55 0
207 55 0
196 55 0
-193 -194 -208 -209 -227 0
193 227 0
194 227 0
208 227 0
209 227 0
-193 -207 -208 -210 -57 0
193 57 0
207 57 0
208 57 0
210 57 0
-37 -6 -231 0
37 6 -231 0
37 -6 231 0
-37 6 231 0
-38 -22 -223 0
38 22 -223 0
38 -22 223 0
-38 22 223 0
-39 -3 -224 0
39 3 -224 0
39 -3 224 0
-39 3 224 0
-40 -5 -228 0
40 5 -228 0
40 -5 228 0
-40 5 228 0
-41 -13 -225 0
41 13 -225 0
41 -13 225 0
-41 13 225 0
-42 -17 -232 0
42 17 -232 0
42 -17 232 0
-42 17 232 0
-43 -31 -229 0
43 31 -229 0
43 -31 229 0
-43 31 229 0
-44 -33 -230 0
44 33 -230 0
44 -33 230 0
-44 33 230 0
-45 -35 -226 0
45 35 -226 0
45 -35 226 0
-45 35 226 0
-46 -227 -56 0
46 227 -56 0
46 -227 56 0
-46 227 56 0
c The second circuit:
233 290 0
-233 -290 0
234 291 0
-234 -291 0
236 292 0
-236 -292 0
463 293 0
-463 -293 0
240 294 0
-240 -294 0
242 295 0
-242 -295 0
244 296 0
-244 -296 0
246 297 0
-246 -297 0
248 298 0
-248 -298 0
250 299 0
-250 -299 0
252 300 0
-252 -300 0
455 301 0
-455 -301 0
256 302 0
-256 -302 0
258 303 0
-258 -303 0
260 304 0
-260 -304 0
262 305 0
-262 -305 0
264 306 0
-264 -306 0
266 307 0
-266 -307 0
-290 -234 -308 0
290 308 0
234 308 0
456 291 309 0
-456 -309 0
-291 -309 0
460 291 310 0
-460 -310 0
-291 -310 0
-292 -463 -311 0
292 311 0
463 311 0
-294 -242 -312 0
294 312 0
242 312 0
-296 -246 -313 0
296 313 0
246 313 0
-298 -250 -314 0
298 314 0
250 314 0
-300 -455 -315 0
300 315 0
455 315 0
-302 -258 -316 0
302 316 0
258 316 0
-304 -262 -317 0
304 317 0
262 317 0
-306 -266 -318 0
306 318 0
266 318 0
239 293 319 0
-239 -319 0
-293 -319 0
241 293 320 0
-241 -320 0
-293 -320 0
243 295 321 0
-243 -321 0
-295 -321 0
457 295 322 0
-457 -322 0
-295 -322 0
247 297 323 0
-247 -323 0
-297 -323 0
464 297 324 0
-464 -324 0
-297 -324 0
251 299 325 0
-251 -325 0
-299 -325 0
253 299 326 0
-253 -326 0
-299 -326 0
255 301 327 0
-255 -327 0
-301 -327 0
257 301 328 0
-257 -328 0
-301 -328 0
259 303 329 0
-259 -329 0
-303 -329 0
261 303 330 0
-261 -330 0
-303 -330 0
461 305 331 0
-461 -331 0
-305 -331 0
462 305 332 0
-462 -332 0
-305 -332 0
458 307 333 0
-458 -333 0
-307 -333 0
268 307 334 0
-268 -334 0
-307 -334 0
-308 -311 -312 -313 -314 -315 -316 -317 -318 335 0
308 -335 0
311 -335 0
312 -335 0
313 -335 0
314 -335 0
315 -335 0
316 -335 0
317 -335 0
318 -335 0
335 336 0
-335 -336 0
335 337 0
-335 -337 0
335 283 0
-335 -283 0
-336 -308 -338 0
336 308 -338 0
336 -308 338 0
-336 308 338 0
-336 -311 -339 0
336 311 -339 0
336 -311 339 0
-336 311 339 0
-336 -312 -340 0
336 312 -340 0
336 -312 340 0
-336 312 340 0
-336 -313 -341 0
336 313 -341 0
336 -313 341 0
-336 313 341 0
-336 -314 -342 0
336 314 -342 0
336 -314 342 0
-336 314 342 0
336 443 0
-336 -443 0
315 444 0
-315 -444 0
-443 -279 445 0
443 -445 0
279 -445 0
-444 -445 446 0
444 -446 0
445 -446 0
-336 -280 447 0
336 -447 0
280 -447 0
-444 -447 448 0
444 -448 0
447 -448 0
-443 -281 449 0
443 -449 0
281 -449 0
-315 -449 450 0
315 -450 0
449 -450 0
-336 -282 451 0
336 -451 0
282 -451 0
-315 -451 452 0
315 -452 0
451 -452 0
446 448 -453 0
-446 453 0
-448 453 0
450 453 -454 0
-450 454 0
-453 454 0
452 454 -343 0
-452 343 0
-454 343 0
-233 -337 -344 0
233 344 0
337 344 0
-336 -316 -345 0
336 316 -345 0
336 -316 345 0
-336 316 345 0
-337 -236 -346 0
337 346 0
236 346 0
-336 -317 -347 0
336 317 -347 0
336 -317 347 0
-336 317 347 0
-337 -240 -348 0
337 348 0
240 348 0
-336 -318 -349 0
336 318 -349 0
336 -318 349 0
-336 318 349 0
-337 -244 -350 0
337 350 0
244 350 0
-337 -248 -351 0
337 351 0
248 351 0
-337 -252 -352 0
337 352 0
252 352 0
-337 -256 -353 0
337 353 0
256 353 0
-337 -260 -354 0
337 354 0
260 354 0
-337 -264 -355 0
337 355 0
264 355 0
-338 -309 -356 0
338 356 0
309 356 0
-338 -310 -357 0
338 357 0
310 357 0
-339 -319 -358 0
339 358 0
319 358 0
-340 -321 -359 0
340 359 0
321 359 0
-341 -323 -360 0
341 360 0
323 360 0
-342 -325 -361 0
342 361 0
325 361 0
-343 -327 -362 0
343 362 0
327 362 0
-345 -329 -363 0
345 363 0
329 363 0
-347 -331 -364 0
347 364 0
331 364 0
-349 -333 -365 0
349 365 0
333 365 0
-339 -320 -366 0
339 366 0
320 366 0
-340 -322 -367 0
340 367 0
322 367 0
-341 -324 -368 0
341 368 0
324 368 0
-342 -326 -369 0
342 369 0
326 369 0
-343 -328 -370 0
343 370 0
328 370 0
-345 -330 -371 0
345 371 0
330 371 0
-347 -332 -372 0
347 372 0
332 372 0
-349 -334 -373 0
349 373 0
334 373 0
-356 -358 -359 -360 -361 -362 -363 -364 -365 374 0
356 -374 0
358 -374 0
359 -374 0
360 -374 0
361 -374 0
362 -374 0
363 -374 0
364 -374 0
365 -374 0
357 375 0
-357 -375 0
366 376 0
-366 -376 0
367 377 0
-367 -377 0
368 378 0
-368 -378 0
369 379 0
-369 -379 0
370 380 0
-370 -380 0
371 381 0
-371 -381 0
372 382 0
-372 -382 0
373 383 0
-373 -383 0
374 384 0
-374 -384 0
374 385 0
-374 -385 0
374 284 0
-374 -284 0
-384 -356 -386 0
384 356 -386 0
384 -356 386 0
-384 356 386 0
-384 -358 -387 0
384 358 -387 0
384 -358 387 0
-384 358 387 0
-384 -359 -388 0
384 359 -388 0
384 -359 388 0
-384 359 388 0
-384 -360 -389 0
384 360 -389 0
384 -360 389 0
-384 360 389 0
-456 -385 -390 0
456 390 0
385 390 0
-384 -361 -391 0
384 361 -391 0
384 -361 391 0
-384 361 391 0
-385 -239 -392 0
385 392 0
239 392 0
-384 -362 -393 0
384 362 -393 0
384 -362 393 0
-384 362 393 0
-385 -243 -394 0
385 394 0
243 394 0
-384 -363 -395 0
384 363 -395 0
384 -363 395 0
-384 363 395 0
-385 -247 -396 0
385 396 0
247 396 0
-384 -364 -397 0
384 364 -397 0
384 -364 397 0
-384 364 397 0
-385 -251 -398 0
385 398 0
251 398 0
-384 -365 -399 0
384 365 -399 0
384 -365 399 0
-384 365 399 0
-385 -255 -400 0
385 400 0
255 400 0
-385 -259 -401 0
385 401 0
259 401 0
-385 -461 -402 0
385 402 0
461 402 0
-385 -458 -403 0
385 403 0
458 403 0
-386 -375 -404 0
386 404 0
375 404 0
-387 -376 -405 0
387 405 0
376 405 0
-388 -377 -406 0
388 406 0
377 406 0
-389 -378 -407 0
389 407 0
378 407 0
-391 -379 -408 0
391 408 0
379 408 0
-393 -380 -409 0
393 409 0
380 409 0
-395 -381 -410 0
395 410 0
381 410 0
-397 -382 -411 0
397 411 0
382 411 0
-399 -383 -412 0
399 412 0
383 412 0
-404 -405 -406 -407 -408 -409 -410 -411 -412 413 0
404 -413 0
405 -413 0
406 -413 0
407 -413 0
408 -413 0
409 -413 0
410 -413 0
411 -413 0
412 -413 0
413 414 0
-413 -414 0
413 285 0
-413 -285 0
-460 -414 -415 0
460 415 0
414 415 0
-414 -241 -416 0
414 416 0
241 416 0
-414 -457 -417 0
414 417 0
457 417 0
-414 -464 -418 0
414 418 0
464 418 0
-414 -253 -419 0
414 419 0
253 419 0
-414 -257 -420 0
414 420 0
257 420 0
-414 -261 -421 0
414 421 0
261 421 0
-414 -462 -422 0
414 422 0
462 422 0
-414 -268 -423 0
414 423 0
268 423 0
-234 -344 -390 -415 -424 0
234 424 0
344 424 0
390 424 0
415 424 0
-346 -392 -416 -463 -425 0
346 425 0
392 425 0
416 425 0
463 425 0
-348 -394 -417 -242 -426 0
348 426 0
394 426 0
417 426 0
242 426 0
-350 -396 -418 -246 -427 0
350 427 0
396 427 0
418 427 0
246 427 0
-351 -398 -419 -250 -428 0
351 428 0
398 428 0
419 428 0
250 428 0
-352 -400 -420 -455 -429 0
352 429 0
400 429 0
420 429 0
455 429 0
-353 -401 -421 -258 -430 0
353 430 0
401 430 0
421 430 0
258 430 0
-354 -402 -422 -262 -431 0
354 431 0
402 431 0
422 431 0
262 431 0
-355 -403 -423 -266 -432 0
355 432 0
403 432 0
423 432 0
266 432 0
424 433 0
-424 -433 0
-425 -426 -427 -428 -429 -430 -431 -432 434 0
425 -434 0
426 -434 0
427 -434 0
428 -434 0
429 -434 0
430 -434 0
431 -434 0
432 -434 0
427 435 0
-427 -435 0
429 436 0
-429 -436 0
430 437 0
-430 -437 0
431 438 0
-431 -438 0
433 434 286 0
-433 -286 0
-434 -286 0
-426 -435 -439 0
426 439 0
435 439 0
-426 -427 -436 -428 -440 0
426 440 0
427 440 0
436 440 0
428 440 0
-428 -427 -437 -441 0
428 441 0
427 441 0
437 441 0
-426 -427 -430 -438 -442 0
426 442 0
427 442 0
430 442 0
438 442 0
-425 -426 -439 -428 -287 0
425 287 0
426 287 0
439 287 0
428 287 0
-425 -426 -440 -441 -459 0
425 459 0
426 459 0
440 459 0
441 459 0
-425 -439 -440 -442 -289 0
425 289 0
439 289 0
440 289 0
442 289 0
-269 -238 -463 0
269 238 -463 0
269 -238 463 0
-269 238 463 0
-270 -254 -455 0
270 254 -455 0
270 -254 455 0
-270 254 455 0
-271 -235 -456 0
271 235 -456 0
271 -235 456 0
-271 235 456 0
-272 -237 -460 0
272 237 -460 0
272 -237 460 0
-272 237 460 0
-273 -245 -457 0
273 245 -457 0
273 -245 457 0
-273 245 457 0
-274 -249 -464 0
274 249 -464 0
274 -249 464 0
-274 249 464 0
-275 -263 -461 0
275 263 -461 0
275 -263 461 0
-275 263 461 0
-276 -265 -462 0
276 265 -462 0
276 -265 462 0
-276 265 462 0
-277 -267 -458 0
277 267 -458 0
277 -267 458 0
-277 267 458 0
-278 -459 -288 0
278 459 -288 0
278 -459 288 0
-278 459 288 0
c Force PIs of 2 ckts to be the same:
1 -233 0
-1 233 0
2 -234 0
-2 234 0
3 -235 0
-3 235 0
4 -236 0
-4 236 0
5 -237 0
-5 237 0
6 -238 0
-6 238 0
7 -239 0
-7 239 0
8 -240 0
-8 240 0
9 -241 0
-9 241 0
10 -242 0
-10 242 0
11 -243 0
-11 243 0
12 -244 0
-12 244 0
13 -245 0
-13 245 0
14 -246 0
-14 246 0
15 -247 0
-15 247 0
16 -248 0
-16 248 0
17 -249 0
-17 249 0
18 -250 0
-18 250 0
19 -251 0
-19 251 0
20 -252 0
-20 252 0
21 -253 0
-21 253 0
22 -254 0
-22 254 0
23 -255 0
-23 255 0
24 -256 0
-24 256 0
25 -257 0
-25 257 0
26 -258 0
-26 258 0
27 -259 0
-27 259 0
28 -260 0
-28 260 0
29 -261 0
-29 261 0
30 -262 0
-30 262 0
31 -263 0
-31 263 0
32 -264 0
-32 264 0
33 -265 0
-33 265 0
34 -266 0
-34 266 0
35 -267 0
-35 267 0
36 -268 0
-36 268 0
c XOR outputs of 2 ckts:
-51 -283 -465 0
51 283 -465 0
51 -283 465 0
-51 283 465 0
-52 -284 -466 0
52 284 -466 0
52 -284 466 0
-52 284 466 0
-53 -285 -467 0
53 285 -467 0
53 -285 467 0
-53 285 467 0
-54 -286 -468 0
54 286 -468 0
54 -286 468 0
-54 286 468 0
-55 -287 -469 0
55 287 -469 0
55 -287 469 0
-55 287 469 0
-56 -288 -470 0
56 288 -470 0
56 -288 470 0
-56 288 470 0
-57 -289 -471 0
57 289 -471 0
57 -289 471 0
-57 289 471 0
c The last OR gate of the miter:
465 466 467 468 469 470 471 -472 0
-465 472 0
-466 472 0
-467 472 0
-468 472 0
-469 472 0
-470 472 0
-471 472 0
472 0
